sat
(model 
  (define-fun w_72 () Int
    0)
  (define-fun w_43 () Int
    0)
  (define-fun c_26 () Int
    15)
  (define-fun c_0 () Int
    0)
  (define-fun c_22 () Int
    12)
  (define-fun c_32 () Int
    1)
  (define-fun w_6 () Int
    0)
  (define-fun c_5 () Int
    2)
  (define-fun w_31 () Int
    0)
  (define-fun c_21 () Int
    3)
  (define-fun w_24 () Int
    0)
  (define-fun c_2 () Int
    0)
  (define-fun w_46 () Int
    0)
  (define-fun w_48 () Int
    0)
  (define-fun c_19 () Int
    11)
  (define-fun w_62 () Int
    0)
  (define-fun w_67 () Int
    0)
  (define-fun w_13 () Int
    0)
  (define-fun w_44 () Int
    0)
  (define-fun w_23 () Int
    0)
  (define-fun c_3 () Int
    0)
  (define-fun c_12 () Int
    5)
  (define-fun c_30 () Int
    3)
  (define-fun w_10 () Int
    0)
  (define-fun w_26 () Int
    0)
  (define-fun w_68 () Int
    0)
  (define-fun w_25 () Int
    0)
  (define-fun w_9 () Int
    0)
  (define-fun c_10 () Int
    2)
  (define-fun w_32 () Int
    0)
  (define-fun c_18 () Int
    10)
  (define-fun c_6 () Int
    3)
  (define-fun w_28 () Int
    0)
  (define-fun c_1 () Int
    0)
  (define-fun w_20 () Int
    0)
  (define-fun w_18 () Int
    0)
  (define-fun w_29 () Int
    0)
  (define-fun w_56 () Int
    0)
  (define-fun w_17 () Int
    0)
  (define-fun c_23 () Int
    1)
  (define-fun w_51 () Int
    0)
  (define-fun c_34 () Int
    3)
  (define-fun w_64 () Int
    0)
  (define-fun w_34 () Int
    0)
  (define-fun w_0 () Int
    0)
  (define-fun w_39 () Int
    0)
  (define-fun c_36 () Int
    19)
  (define-fun w_60 () Int
    0)
  (define-fun w_70 () Int
    0)
  (define-fun w_58 () Int
    0)
  (define-fun w_69 () Int
    0)
  (define-fun w_1 () Int
    0)
  (define-fun w_27 () Int
    0)
  (define-fun c_13 () Int
    1)
  (define-fun w_52 () Int
    0)
  (define-fun w_57 () Int
    0)
  (define-fun w_12 () Int
    0)
  (define-fun c_4 () Int
    1)
  (define-fun w_65 () Int
    0)
  (define-fun c_17 () Int
    9)
  (define-fun w_30 () Int
    0)
  (define-fun w_55 () Int
    0)
  (define-fun c_8 () Int
    0)
  (define-fun w_47 () Int
    0)
  (define-fun w_71 () Int
    0)
  (define-fun c_15 () Int
    7)
  (define-fun w_3 () Int
    0)
  (define-fun w_45 () Int
    0)
  (define-fun w_35 () Int
    0)
  (define-fun w_22 () Int
    0)
  (define-fun c_16 () Int
    8)
  (define-fun c_14 () Int
    6)
  (define-fun w_4 () Int
    0)
  (define-fun w_14 () Int
    0)
  (define-fun c_29 () Int
    16)
  (define-fun w_7 () Int
    0)
  (define-fun c_27 () Int
    4)
  (define-fun w_21 () Int
    0)
  (define-fun c_31 () Int
    17)
  (define-fun w_19 () Int
    0)
  (define-fun w_59 () Int
    0)
  (define-fun w_38 () Int
    0)
  (define-fun w_15 () Int
    0)
  (define-fun c_9 () Int
    1)
  (define-fun w_11 () Int
    0)
  (define-fun w_16 () Int
    0)
  (define-fun c_24 () Int
    13)
  (define-fun c_33 () Int
    2)
  (define-fun c_7 () Int
    0)
  (define-fun c_11 () Int
    4)
  (define-fun c_20 () Int
    2)
  (define-fun c_28 () Int
    1)
  (define-fun w_8 () Int
    0)
  (define-fun w_53 () Int
    0)
  (define-fun w_54 () Int
    0)
  (define-fun w_33 () Int
    0)
  (define-fun w_2 () Int
    0)
  (define-fun w_61 () Int
    0)
  (define-fun w_36 () Int
    0)
  (define-fun w_49 () Int
    0)
  (define-fun w_66 () Int
    0)
  (define-fun w_40 () Int
    0)
  (define-fun c_25 () Int
    14)
  (define-fun w_41 () Int
    0)
  (define-fun w_42 () Int
    0)
  (define-fun w_37 () Int
    0)
  (define-fun w_50 () Int
    0)
  (define-fun w_5 () Int
    0)
  (define-fun c_35 () Int
    18)
  (define-fun w_63 () Int
    0)
)
